[[84, 94, 93, 92, 91, 83, 82, 73, 75, 74, 66, 65, 64, 56, 55, 46, 47, 57, 58, 59, 49, 50, 40, 48, 39, 38, 41, 32, 31, 30, 29], [37, 28, 19, 20, 21, 22, 13, 11, 10, 2, 12, 3, 4, 14, 5, 6, 7, 8, 9, 18, 17, 16, 15, 23, 24, 25, 26, 27, 35, 36, 34, 33, 42, 43, 44, 45], [54, 53, 52, 51, 60, 61, 62, 63, 71, 72, 81, 80, 70, 69, 67, 68, 76, 77, 78, 79, 88, 89, 90, 99, 98, 97, 96, 87, 95, 86, 85]]